17	4
21	34	27	26	
0	0	0	0	0	3	2	3	4	
4	2	0	8	5	3	7	9	17	
2	0	10	3	10	3	10	11	15	
1	10	0	0	1	3	5	15	17	
2	9	10	8	9	3	6	14	17	
75	0	4	8	0	3	17	17	17	
225	5	9	7	0	3	8	13	14	
225	1	6	8	0	3	16	17	17	
75	0	4	0	3	3	10	15	17	
175	0	10	0	1	3	12	16	17	
250	8	9	2	2	3	12	16	17	
200	0	3	3	6	2	14	17	
4	4	9	8	0	3	17	17	17	
6	4	9	0	7	2	17	17	
3	1	5	3	2	2	17	17	
9	3	9	8	10	2	17	17	
0	0	0	0	0	0	
